(set-logic QF_S)
(set-option :produce-models true)

(declare-fun s730 () String)
(declare-fun s502 () String)
(declare-fun s435 () String)
(declare-fun s440 () String)
(declare-fun s499 () String)
(declare-fun s733 () String)
(declare-fun s770 () String)
(declare-fun s676 () String)
(declare-fun s804 () String)
(declare-fun s679 () String)
(declare-fun s606 () String)
(declare-fun s872 () String)
(declare-fun s544 () String)
(declare-fun s145 () String)
(declare-fun s547 () String)
(declare-fun s603 () String)
(declare-fun s767 () String)
(declare-fun s807 () String)

(assert (= s440 s435 ))
(assert (not (= s145 s770 )))
(assert (= s872 s145 ))
(assert (= s547 s544 ))
(assert (= s145 "(" ))
(assert (= s502 s499 ))
(assert (= s145 s547 ))
(assert (not (= s145 s679 )))
(assert (= s606 s603 ))
(assert (not (= s145 s606 )))
(assert (not (= s145 s733 )))
(assert (= s145 s502 ))
(assert (= s770 s767 ))
(assert (= s807 s804 ))
(assert (not (= s145 s807 )))
(assert (= s733 s730 ))
(assert (= s145 s440 ))
(assert (= s679 s676 ))


(check-sat)
(get-model)
